#######################################
### Exact MIP solver for the HHCRSP ###
#######################################
-- Instance file: new-instances/HHCRSP_25_5_37_1.6_R_RC.txt
-- Max threads: 4
-- Time limit: 999999 seconds
-- Use initial solution: No
Trivial flow violations prevented generating 708 variables.
Model exported.
Version identifier: 20.1.0.0 | 2020-11-10 | 9bedb6d68
CPXPARAM_Threads                                 4
CPXPARAM_TimeLimit                               999999
Tried aggregator 1 time.
LP Presolve eliminated 280 rows and 89 columns.
Aggregator did 2 substitutions.
Reduced LP has 760 rows, 741 columns, and 4690 nonzeros.
Presolve time = 0.00 sec. (1.79 ticks)

Iteration log . . .
Iteration:     1   Dual objective     =             0.000000
Iteration:    92   Dual objective     =            81.688680

Solution status from MIP model:
-- Processing time: 0.005 sec.
-- Memory used: 14.5664 MB
-- Best bound: inf
-- Obj value: 81.7328
-- Gap: inf%
-- Total distance: 245.198
-- Total tardiness: 0
-- Largest tardiness: 0
